57 198 107 127 25 117 135 9 193 50 163 174 126 27 14 58 43 175 108 104 95 30 32 94 11 18 42 192 22 35 172 157 44 171 122 81 46 17 47 183 179 148 29 140 62 133 8 26 185 2 70 187 60 167 145 79 173 131 166 61 19 82 71 149 102 69 97 124 84 86 165 31 136 78 72 4 188 28 21 41 80 196 0 154 191 56 45 68 137 158 99 1 143 39 40 87 49 96 111 7 37 51 53 3 10 125 75 85 73 159 66 186 64 38 194 169 129 92 112 54 93 189 138 12 118 34 36 103 141 23 48 89 184 100 120 16 199 176 119 67 114 132 150 130 24 55 144 116 65 164 33 180 115 177 91 123 52 182 162 105 5 101 168 128 195 146 178 139 156 110 76 63 153 20 121 181 147 109 142 88 155 190 170 152 161 106 160 6 134 113 83 74 13 77 59 151 98 15 90 197